Total weight: 1470.6010246280955
Route 1: 0 98 47 14 9 11 15 16 73 7 2 45 6 8 46 12 10 13 17 60 4 5 3 1 70 100 0 
Route 2: 0 42 39 72 34 33 31 29 27 26 28 76 23 21 48 18 19 51 84 22 49 20 56 90 68 61 91 89 24 25 77 58 75 97 0 
Route 3: 0 92 50 63 85 62 30 44 40 38 41 36 37 43 35 32 93 94 80 0 
Route 4: 0 96 71 67 95 64 66 82 53 79 78 0 
Route 5: 0 65 99 52 57 86 87 59 74 83 0 
Route 6: 0 81 54 0 
Route 7: 0 69 88 55 0 
